solution status: optimal solution found
objective value:                                    0
bank.cells_in_hole_y                               17 	(obj:0)
bank.cells_in_hole_z                               19 	(obj:0)
bank.push_line_hole_y                              17 	(obj:0)
bank.push_line_hole_z                              18 	(obj:0)
bank.beads_in_hole_y                               18 	(obj:0)
bank.beads_in_hole_z                               18 	(obj:0)
bank.lysis_buffer_in_hole_y                        18 	(obj:0)
bank.lysis_buffer_in_hole_z                        17 	(obj:0)
